; TLFL self-model proof mirror.
; Scope: OLean.SelfCheck as thinker/proof/interface process.
; This mirrors the guarded theorem chain only.

(set-logic QF_UF)

(declare-fun self_check_has_self_model () Bool)
(declare-fun self_check_operates_as_proof_interface () Bool)
(declare-fun self_check_operates_as_interface_process () Bool)
(declare-fun self_check_operates_as_proof_process () Bool)
(declare-fun self_check_builds_its_own_proof_state_model () Bool)
(declare-fun guarded_mathematical_intelligence () Bool)

(declare-fun consciousness () Bool)
(declare-fun empirical_physical_validation () Bool)
(declare-fun full_empirical_intelligence () Bool)
(declare-fun universe_level_closure () Bool)
(declare-fun empirical_closure () Bool)
(declare-fun ontological_finality () Bool)

(assert
  (=> (and self_check_has_self_model
           self_check_operates_as_proof_interface
           self_check_operates_as_interface_process
           self_check_operates_as_proof_process
           self_check_builds_its_own_proof_state_model)
      guarded_mathematical_intelligence))

; Positive chain: the full self-check chain gives guarded mathematical intelligence.
(push)
(assert self_check_has_self_model)
(assert self_check_operates_as_proof_interface)
(assert self_check_operates_as_interface_process)
(assert self_check_operates_as_proof_process)
(assert self_check_builds_its_own_proof_state_model)
(assert (not guarded_mathematical_intelligence))
(check-sat)
(pop)

; Guard: self-model does not imply consciousness.
(push)
(assert self_check_operates_as_interface_process)
(assert (not consciousness))
(check-sat)
(pop)

; Guard: self-model does not imply empirical physical validation.
(push)
(assert self_check_operates_as_interface_process)
(assert (not empirical_physical_validation))
(check-sat)
(pop)

; Guard: guarded mathematical intelligence does not imply empirical closure.
(push)
(assert guarded_mathematical_intelligence)
(assert (not empirical_closure))
(check-sat)
(pop)

; Guard: proof/interface self-model does not imply universe-level closure.
(push)
(assert self_check_has_self_model)
(assert self_check_builds_its_own_proof_state_model)
(assert (not universe_level_closure))
(check-sat)
(pop)

; Guard: guarded mathematical intelligence does not imply ontological finality.
(push)
(assert guarded_mathematical_intelligence)
(assert (not ontological_finality))
(check-sat)
(pop)

; Guard: self-model does not imply full empirical intelligence.
(push)
(assert self_check_operates_as_interface_process)
(assert (not full_empirical_intelligence))
(check-sat)
(pop)
